SPARKNaCl/why3-cvc5/sparknacl-hashing-sha2_common.adb_135_39_overflow_check2_1.smt2
;; produced by cvc5.drv ;;
(set-logic ALL)
(set-info :smt-lib-version 2.6)
;;; generated by SMT-LIB2 driver
;;; SMT-LIB2 driver: bit-vectors, common part
;;; SMT-LIB2: integer arithmetic
;; "pow2"
(declare-fun pow2 (Int) Int)

(declare-const two_power_size_minus_one Int)

;; "two_power_size_minus_one_val"
(assert (= two_power_size_minus_one (pow2 (- 8 1))))

;; "min"
(define-fun min ((x Int) (y Int)) Int
  (ite (<= x y) x y))

;; "max"
(define-fun max ((x Int) (y Int)) Int
  (ite (<= x y) y x))

;; "Min_r"
(assert (forall ((x Int) (y Int)) (=> (<= y x) (= (min x y) y))))

;; "Max_l"
(assert (forall ((x Int) (y Int)) (=> (<= y x) (= (max x y) x))))

;; "Min_comm"
(assert (forall ((x Int) (y Int)) (= (min x y) (min y x))))

;; "Max_comm"
(assert (forall ((x Int) (y Int)) (= (max x y) (max y x))))

;; "Min_assoc"
(assert
  (forall ((x Int) (y Int) (z Int)) (= (min (min x y) z) (min x (min y z)))))

;; "Max_assoc"
(assert
  (forall ((x Int) (y Int) (z Int)) (= (max (max x y) z) (max x (max y z)))))

;; "lsl"
(declare-fun lsl ((_ BitVec 32)
  Int) (_ BitVec 32))

(declare-const two_power_size_minus_one1 Int)

;; "two_power_size_minus_one_val"
(assert (= two_power_size_minus_one1 (pow2 (- 32 1))))

;; "lsl_bv_is_lsl"
(assert
  (forall ((x (_ BitVec 32)) (n (_ BitVec 32)))
    (= (bvshl x n) (lsl x (bv2nat n)))))

(declare-const two_power_size_minus_one2 Int)

;; "two_power_size_minus_one_val"
(assert (= two_power_size_minus_one2 (pow2 (- 64 1))))

(declare-sort tinteger_32B 0)

;; "tinteger_32B'int"
(declare-fun tinteger_32Bqtint (tinteger_32B) Int)

;; "tinteger_32B'axiom"
(assert
  (forall ((i tinteger_32B))
    (and
      (<= (- 2147483648) (tinteger_32Bqtint i))
      (<= (tinteger_32Bqtint i) 2147483647))))

;; "in_range"
(define-fun in_range ((x Int)) Bool
  (and (<= (- 2147483648) x) (<= x 2147483647)))

;; "to_rep"
(define-fun to_rep ((x tinteger_32B)) Int
  (tinteger_32Bqtint x))

;; "of_rep"
(declare-fun of_rep (Int) tinteger_32B)

;; "inversion_axiom"
(assert
  (forall ((x tinteger_32B))
    (! (= (of_rep (to_rep x)) x) :pattern ((to_rep x)) )))

;; "range_axiom"
(assert
  (forall ((x tinteger_32B))
    (! (in_range (to_rep x)) :pattern ((to_rep x)) )))

;; "coerce_axiom"
(assert
  (forall ((x Int))
    (! (=> (in_range x) (= (to_rep (of_rep x)) x)) :pattern ((to_rep
                                                               (of_rep x))) )))

;; "in_range"
(define-fun in_range1 ((x Int)) Bool
  (and (<= 0 x) (<= x 2147483647)))

(declare-sort byte 0)

;; "to_rep"
(declare-fun to_rep1 (byte) (_ BitVec 8))

;; "of_rep"
(declare-fun of_rep1 ((_ BitVec 8)) byte)

;; "inversion_axiom"
(assert
  (forall ((x byte)) (! (= (of_rep1 (to_rep1 x)) x) :pattern ((to_rep1 x)) )))

;; "range_axiom"
(assert true)

;; "coerce_axiom"
(assert
  (forall ((x (_ BitVec 8)))
    (! (= (to_rep1 (of_rep1 x)) x) :pattern ((to_rep1 (of_rep1 x))) )))

(declare-sort map1 0)

;; "has_bounds"
(declare-fun has_bounds (map1
  Int
  Int) Bool)

;; "get"
(declare-fun get (map1
  Int) byte)

(declare-datatypes ((t 0))
  (((tqtmk (rec__first tinteger_32B)(rec__last tinteger_32B)))))

;; "dynamic_property"
(define-fun dynamic_property ((range_first Int) (range_last Int) (low Int) (high Int)) Bool
  (and
    (in_range low)
    (and
      (in_range high)
      (=> (<= low high) (and (in_range1 low) (in_range1 high))))))

(declare-datatypes ((us_t 0))
  (((us_tqtmk (elts map1)(rt t)))))

;; "to_array"
(define-fun to_array ((a us_t)) map1
  (elts a))

;; "first"
(define-fun first ((a us_t)) Int
  (to_rep (rec__first (rt a))))

;; "last"
(define-fun last ((a us_t)) Int
  (to_rep (rec__last (rt a))))

;; "length"
(define-fun length ((a us_t)) Int
  (ite (<= (first a) (last a)) (+ (- (last a) (first a)) 1) 0))

;; "well_formed"
(define-fun well_formed ((a us_t)) Bool
  (has_bounds
    (elts a)
    (to_rep (rec__first (rt a)))
    (to_rep (rec__last (rt a)))))

(declare-const x us_t)

(declare-const i Int)

;; "dynamic_invariant"
(define-fun dynamic_invariant ((temp___expr_329 us_t) (temp___is_init_325 Bool) (temp___skip_constant_326 Bool) (temp___do_toplevel_327 Bool) (temp___do_typ_inv_328 Bool)) Bool
  (and
    (=>
      (not (= temp___skip_constant_326 true))
      (dynamic_property
        0
        2147483647
        (first temp___expr_329)
        (last temp___expr_329)))
    (well_formed temp___expr_329)))

;; Goal "def'vc"
;; File "sparknacl-hashing-sha2_common.adb", line 114, characters 0-0
(assert
  (not
  (=>
    (dynamic_invariant x true false true true)
    (=>
      (in_range1 i)
      (=>
        (and (and (<= 8 (length x)) (<= (first x) i)) (<= i (- (last x) 7)))
        (let ((o (+ i 3)))
          (=>
            (in_range o)
            (=>
              (and (<= (first x) o) (<= o (last x)))
              (forall ((o1 (_ BitVec 8)))
                (=>
                  (= (to_rep1 (get (to_array x) o)) o1)
                  (let ((o2 (+ i 2)))
                    (=>
                      (in_range o2)
                      (=>
                        (and (<= (first x) o2) (<= o2 (last x)))
                        (forall ((o3 (_ BitVec 8)))
                          (=>
                            (= (to_rep1 (get (to_array x) o2)) o3)
                            (let ((o4 (+ i 1)))
                              (=>
                                (in_range o4)
                                (=>
                                  (and (<= (first x) o4) (<= o4 (last x)))
                                  (forall ((o5 (_ BitVec 8)))
                                    (=>
                                      (= (to_rep1 (get (to_array x) o4)) o5)
                                      (let ((temp___1024 i))
                                        (=>
                                          (and
                                            (<= (first x) temp___1024)
                                            (<= temp___1024 (last x)))
                                          (forall ((o6 (_ BitVec 8)))
                                            (=>
                                              (= (to_rep1
                                                   (get
                                                     (to_array x)
                                                     temp___1024)) o6)
                                              (forall ((msw (_ BitVec 32)))
                                                (=>
                                                  (= msw (bvor (bvor (bvor (bvshl ((_ zero_extend 24) o6) ((_ int2bv 32) 24)) (bvshl ((_ zero_extend 24) o5) ((_ int2bv 32) 16))) (bvshl ((_ zero_extend 24) o3) ((_ int2bv 32) 8))) ((_ zero_extend 24) o1)))
                                                  (<= (+ i 7) 2147483647)))))))))))))))))))))))))))

(check-sat)
